; benchmark generated from python API
(set-info :status unknown)
(declare-datatypes ((IntState 0)) (((Mk1 (val1 Int)) (Mk2 (val2 Int)))))
 (declare-fun c_main_~i~6 () Int)
(declare-fun c_main_~j~6 () Int)
(declare-fun c_main_~k~6 () Int)
(assert
 (let (($x139 (<= c_main_~j~6 (+ (* 2 c_main_~i~6) 1))))
 (let (($x19 (<= c_main_~j~6 (+ (* 2 c_main_~i~6) 2))))
 (let (($x67 (<= c_main_~i~6 3)))
 (let (($x112 (exists ((v_nnf_46_st IntState) (val!177 Int) )(let ((?x56 (val2 v_nnf_46_st)))
 (let (($x74 (<= ?x56 3)))
 (let (($x170 (and (<= (+ ?x56 2) c_main_~k~6) $x74 (<= c_main_~j~6 (+ (* 2 ?x56) 2)))))
 (let (($x52 (not (= v_nnf_46_st (Mk1 val!177)))))
 (and $x52 $x170))))))
 ))
 (let (($x153 (<= c_main_~i~6 2)))
 (let (($x34 (exists ((v_nnf_48 Int) )(let (($x102 (<= c_main_~j~6 (+ (* 2 v_nnf_48) 2))))
 (let (($x63 (<= v_nnf_48 3)))
 (and (<= (+ v_nnf_48 3) c_main_~k~6) $x63 $x102))))
 ))
 (and (and $x153 $x34 $x67 $x19 $x139) (not (and $x153 $x112 $x67 $x19 $x139))))))))))
(check-sat)
